1-2-12-13-23-24-33-34-52-53-63-72-81-89-90-99-98-97-96-87-88-79-80-71-70-59-58-49-50-40-29-37-28-19-10-1
1-4-5-6-7-8-9-18-17-27-35-36-44-45-54-62-61-68-67-75-73-74-64-56-55-46-48-39-41-32-31-21-22-11-1
1-3-14-15-16-25-26-43-42-51-60-69-78-77-85-86-95-94-93-92-91-82-83-84-76-66-65-57-47-38-30-20-1